data/solutions/recovery/degenerate/intermediate/binding/degenerate_intermediate_instance21/72.sol
Elapsed time: 0.04
Upper bound: 31176411.0
Planning weighted value: 1.07718798762e+11
C[0]=31176411.0
C[1]=31154121.0
C[2]=30926112.0
C[3]=29962879.0
C[4]=29277840.0
C[5]=28350420.0
C[6]=27572980.0
C[7]=24262058.0
C[8]=24249604.0
C[9]=24066121.0
C[10]=0.0
C[11]=0.0
y[0]=4
y[1]=3
y[2]=0
y[3]=5
y[4]=2
y[5]=8
y[6]=1
y[7]=5
y[8]=7
y[9]=6
y[10]=5
y[11]=0
y[12]=5
y[13]=5
y[14]=2
y[15]=2
y[16]=6
y[17]=5
y[18]=5
y[19]=4
y[20]=7
y[21]=6
y[22]=1
y[23]=5
y[24]=6
y[25]=5
y[26]=4
y[27]=6
y[28]=3
y[29]=3
y[30]=3
y[31]=0
y[32]=5
y[33]=4
y[34]=4
y[35]=7
y[36]=5
y[37]=4
y[38]=8
y[39]=5
y[40]=5
y[41]=7
y[42]=9
y[43]=8
y[44]=9
y[45]=7
y[46]=5
y[47]=0
y[48]=1
y[49]=1
y[50]=9
y[51]=1
y[52]=9
y[53]=3
y[54]=7
y[55]=5
y[56]=2
y[57]=2
y[58]=6
y[59]=6
y[60]=6
y[61]=8
y[62]=5
y[63]=5
y[64]=2
